10J3M/DAT/10J3MULA-12.dat
10 3
42.9568 1845.2867
30.7574 946.0177
11.3553 128.9428
44.4687 1977.4653
14.897 221.9206
41.9395 1758.9217
9.206 84.7504
45.2328 2046.0062
11.0243 121.5352
19.4106 376.7714
3169.206