10J3M/SOL/10J3MULA-12.sol
solution status: optimal solution found
objective value:                     90.4161333333333
x#1#1                                0.63607150451833 	(obj:0)
x#1#2                                0.36392849548167 	(obj:0)
x#2#2                                               1 	(obj:0)
x#3#1                               0.891983208549346 	(obj:0)
x#3#3                               0.108016791450654 	(obj:0)
x#4#2                               0.709877685263486 	(obj:0)
x#4#3                               0.290122314736514 	(obj:0)
x#5#3                                               1 	(obj:0)
x#6#1                                               1 	(obj:0)
x#7#2                                               1 	(obj:0)
x#8#3                                               1 	(obj:0)
x#9#1                                               1 	(obj:0)
x#10#2                               0.16754721213924 	(obj:0)
x#10#3                               0.83245278786076 	(obj:0)
z                                    90.4161333333333 	(obj:1)
